datasets/2-dimensional/CL_07_25_04.vbp
2
150 150 
25
88 79 30
79 71 72
43 36 4
53 56 88
45 47 54
65 58 64
23 30 90
97 99 26
91 95 94
77 78 28
73 67 72
42 48 49
56 63 54
53 50 19
77 76 28
40 44 61
38 29 84
38 41 23
28 20 67
28 24 53
82 81 54
21 13 16
23 15 9
52 58 54
99 101 77
