datasets/2-dimensional/CL_07_25_04.txt
150 150 
0 30 88 79 
1 72 79 71 
2 4 43 36 
3 88 53 56 
4 54 45 47 
5 64 65 58 
6 90 23 30 
7 26 97 99 
8 94 91 95 
9 28 77 78 
10 72 73 67 
11 49 42 48 
12 54 56 63 
13 19 53 50 
14 28 77 76 
15 61 40 44 
16 84 38 29 
17 23 38 41 
18 67 28 20 
19 53 28 24 
20 54 82 81 
21 16 21 13 
22 9 23 15 
23 54 52 58 
24 77 99 101 
